# Solution for model count
# Objective value = 10
z#1 0
z#2 1
z#3 0
z#4 0
z#5 0
z#6 1
z#7 1
z#8 0
z#9 0
z#10 0
z#11 1
z#12 1
z#13 0
z#14 0
z#15 0
z#16 0
z#17 1
z#18 1
z#19 0
z#20 1
z#21 1
z#22 0
z#23 1
z#24 0
x#24 0
x#23 312
x#22 0
x#21 731
x#20 1870
x#19 0
x#18 1613
x#17 359
x#16 0
x#15 0
x#14 0
x#13 0
x#12 1333
x#11 1250
x#10 0
x#9 0
x#8 0
x#7 244
x#6 1467
x#5 0
x#4 0
x#3 0
x#2 821
x#1 0
